NAME : LPS-n13-m371
COMMENT : (Lartu-Peter-Santi Plot, instance 4371 out of 39200. 13 customers.)
TYPE : CVRP
DIMENSION : 13
EDGE_WEIGHT_TYPE : EUC_2D
CAPACITY : 105
NODE_COORD_SECTION
 1 99 34
 2 4 81
 3 100 36
 4 92 92
 5 75 93
 6 88 95
 7 33 4
 8 72 78
 9 63 40
 10 91 72
 11 45 90
 12 14 36
 13 47 5
DEMAND_SECTION
1 0
2 7
3 33
4 100
5 75
6 77
7 27
8 39
9 8
10 13
11 59
12 27
13 14
DEPOT_SECTION
 1
 -1
EOF
